unsat
(:max-memory         18.52
 :memory             18.33
 :nlsat-arith-var    3
 :nlsat-atoms        13
 :nlsat-bool-var     5
 :nlsat-clauses      6
 :nlsat-conflicts    8
 :nlsat-decisions    1
 :nlsat-propagations 23
 :nlsat-stages       7
 :num-allocs         74267
 :rlimit-count       9392
 :time               0.01
 :total-time         0.03)
